
--- Job MORITS.gms Start 09/21/18 11:12:30 24.2.1 r43572 WEX-WEI x86_64/MS Windows
GAMS 24.2.1   Copyright (C) 1987-2013 GAMS Development. All rights reserved
Licensee: Abteilung Energie, Verkehr, Umwelt, 5 User     S131220:0515AN-GEN
          Deutsches Institut fuer Wirtschaftsforschung DIW           DC3975
          License for teaching and research at degree granting institutions
--- Starting compilation
--- MORITS.gms(212) 3 Mb
--- call gdxxrw upload_data.xlsx @temp.tmp o=Data_input

GDXXRW           24.2.1 r43572 Released Dec  9, 2013 VS8 x86/MS Windows       
**** Input file not found = C:\Users\cguenther\Documents\GitHub\prosumage\Code\Source_Code\Modelle\MORITS\upload_data.xlsx
Total time = 640 Ms
--- MORITS.gms(213) 3 Mb
--- GDXin=C:\Users\cguenther\Documents\GitHub\prosumage\Code\Source_Code\Modelle\MORITS\Data_input.gdx
--- MORITS.gms(800) 4 Mb
--- Starting execution: elapsed 0:00:01.237
--- MORITS.gms(609) 5 Mb
---
--- collecting and writing gdx file 
---
--- Generating LP model morits_min_cost_all
--- MORITS.gms(609) 9 Mb
---   8,002 rows  7,007 columns  28,007 non-zeroes
---   0 nl-code  0 nl-non-zeroes
--- MORITS.gms(609) 7 Mb
--- Executing CPLEX: elapsed 0:00:01.315

GUSS             24.2.1 r43572 Released Dec  9, 2013 WEI x86_64/MS Windows    
Reading parameter(s) from scenario dictionary
>>  Logoption 2
>>  Optfile 1
>>  Skipbasecase 1
--- Scenario Variable with potential updates identified: phi_min_res

IBM ILOG CPLEX   24.2.1 r43572 Released Dec  9, 2013 WEI x86_64/MS Windows    
--- GAMS/Cplex licensed for continuous and discrete problems.
Cplex 12.6.0.0

Reading parameter(s) from "C:\Users\cguenther\Documents\GitHub\prosumage\Code\Source_Code\Modelle\MORITS\cplex.opt"
>>  lpmethod 4
>>  threads 4
>>  epgap 1e-3
>>  epagap 10
>>  parallelmode -1
Finished reading from "C:\Users\cguenther\Documents\GitHub\prosumage\Code\Source_Code\Modelle\MORITS\cplex.opt"
Warning: Cplex threads 4 > #cores 2
Reading data...
Starting Cplex...
Space for names approximately 0.46 Mb
Use option 'names no' to turn use of names off
Tried aggregator 1 time.
LP Presolve eliminated 1 rows and 1002 columns.
Reduced LP has 8001 rows, 6005 columns, and 23000 nonzeros.
Presolve time = 0.01 sec. (5.65 ticks)
Parallel mode: using up to 4 threads for barrier.

***NOTE: Found 5 dense columns.

Number of nonzeros in lower triangle of A*A' = 15000
Using Approximate Minimum Degree ordering
Total time for automatic ordering = 0.00 sec. (1.57 ticks)
Summary statistics for Cholesky factor:
  Threads                   = 4
  Rows in Factor            = 8006
  Integer space required    = 17474
  Total non-zeros in factor = 77988
  Total FP ops to factor    = 887332
 Itn      Primal Obj        Dual Obj  Prim Inf Upper Inf  Dual Inf Inf Ratio
   0  1.2302913e+011  0.0000000e+000 3.37e+009 0.00e+000 2.47e+008 1.00e+000
   1  5.3446163e+010  4.0214637e+010 3.65e+008 0.00e+000 2.68e+007 9.81e-009
   2  3.9997103e+010  3.8373055e+010 4.68e+007 0.00e+000 3.92e+006 2.22e-008
   3  3.5052847e+010  3.4170250e+010 1.85e+007 0.00e+000 1.41e+006 6.28e-008
   4  3.3328349e+010  3.2004205e+010 1.11e+007 0.00e+000 5.09e+005 1.87e-007
   5  3.1753305e+010  3.0909614e+010 6.00e+006 0.00e+000 2.46e+005 4.19e-007
   6  3.1078681e+010  3.0857967e+010 3.57e+006 0.00e+000 2.31e+005 4.66e-007
   7  3.0754366e+010  3.0701641e+010 2.45e+006 0.00e+000 1.86e+005 6.04e-007
   8  3.0637561e+010  3.0533794e+010 2.03e+006 0.00e+000 1.37e+005 9.14e-007
   9  3.0555247e+010  3.0491076e+010 1.68e+006 0.00e+000 1.21e+005 1.06e-006
  10  3.0503631e+010  3.0403100e+010 1.40e+006 0.00e+000 7.82e+004 1.96e-006
  11  3.0365382e+010  3.0346354e+010 9.25e+005 0.00e+000 6.37e+004 2.48e-006
  12  3.0294230e+010  3.0302303e+010 6.73e+005 0.00e+000 5.22e+004 3.17e-006
  13  3.0262918e+010  3.0227459e+010 5.65e+005 0.00e+000 3.29e+004 6.03e-006
  14  3.0250046e+010  3.0216364e+010 5.30e+005 0.00e+000 3.08e+004 6.54e-006
  15  3.0205760e+010  3.0190985e+010 4.08e+005 0.00e+000 2.59e+004 7.91e-006
  16  3.0169613e+010  3.0181001e+010 3.04e+005 0.00e+000 2.38e+004 8.87e-006
  17  3.0104870e+010  3.0134446e+010 1.03e+005 0.00e+000 1.37e+004 1.97e-005
  18  3.0080580e+010  3.0091254e+010 3.49e+004 0.00e+000 4.78e+003 7.23e-005
  19  3.0071095e+010  3.0074001e+010 1.65e+004 0.00e+000 1.90e+003 2.01e-004
  20  3.0069517e+010  3.0071287e+010 1.39e+004 0.00e+000 1.49e+003 2.63e-004
  21  3.0065833e+010  3.0069792e+010 7.92e+003 0.00e+000 1.27e+003 3.18e-004
  22  3.0064713e+010  3.0069181e+010 5.67e+003 0.00e+000 1.18e+003 3.42e-004
  23  3.0064410e+010  3.0067059e+010 5.12e+003 0.00e+000 8.51e+002 5.08e-004
  24  3.0062004e+010  3.0065252e+010 1.48e+003 0.00e+000 5.92e+002 7.65e-004
  25  3.0061508e+010  3.0062645e+010 4.50e+002 0.00e+000 2.07e+002 3.01e-003
  26  3.0060891e+010  3.0062206e+010 1.21e+002 0.00e+000 1.61e+002 3.95e-003
  27  3.0060762e+010  3.0061017e+010 9.30e+001 0.00e+000 3.98e+001 1.73e-002
  28  3.0060728e+010  3.0060880e+010 7.75e+001 0.00e+000 2.68e+001 2.63e-002
  29  3.0060714e+010  3.0060777e+010 6.94e+001 0.00e+000 1.73e+001 4.15e-002
  30  3.0060594e+010  3.0060605e+010 3.71e+000 0.00e+000 1.77e+000 4.03e-001
  31  3.0060586e+010  3.0060586e+010 1.83e-001 0.00e+000 8.92e-002 7.98e+000
  32  3.0060585e+010  3.0060585e+010 9.17e-003 0.00e+000 4.47e-003 1.59e+002
  33  3.0060585e+010  3.0060585e+010 4.42e-004 0.00e+000 2.66e-004 2.67e+003
Barrier time = 0.33 sec. (105.75 ticks)
Parallel mode: opportunistic, using up to 4 threads for concurrent optimization.

Dual crossover.
  Dual:  Fixing 1712 variables.
Using devex.

Primal simplex solved model.

Total crossover time = 0.06 sec. (60.84 ticks)

Total time on 4 threads = 0.40 sec. (172.49 ticks)
LP status(1): optimal
Cplex Time: 0.40sec (det. 172.51 ticks)

Optimal solution found.
Objective : 30060585075.316872

--- Scenario scen1:     Records read:    1
--- Solution statistics for scenario scen1
---   Solver Status    1 Normal Completion         
---   Model Status     1 Optimal                   
---   Objective Value  30060585075.3169
---   Resource Usage   421
---   Total Time (ms)  421
--- Restarting execution
--- MORITS.gms(609) 3 Mb
--- Reading solution for model morits_min_cost_all
--- Executing after solve: elapsed 0:00:01.996
--- MORITS.gms(609) 3 Mb
---
--- scattering and reading gdx file 
---
--- MORITS.gms(609) 4 Mb
--- marginal Id = minRES maps to marginal_minRES
--- level    Id = Z maps to lev_Z
--- level    Id = G_CON maps to lev_G_CON
--- level    Id = G_RENEWABLE maps to lev_G_RENEWABLE
--- level    Id = CU maps to lev_CU
--- level    Id = STO_IN maps to lev_STO_IN
--- level    Id = STO_OUT maps to lev_STO_OUT
--- level    Id = STO_L maps to lev_STO_L
--- marginal Id = N_RENEWABLE maps to marg_N_RENEWABLE
--- level    Id = N_RENEWABLE maps to lev_N_RENEWABLE
--- marginal Id = N_STO_E maps to marg_N_STO_E
--- level    Id = N_STO_E maps to lev_N_STO_E
--- marginal Id = N_CON maps to marg_N_CON
--- level    Id = N_CON maps to lev_N_CON
--- marginal Id = N_STO_P maps to marg_N_STO_P
--- level    Id = N_STO_P maps to lev_N_STO_P
--- MORITS.gms(609) 4 Mb
--- Scatter finished in 16 ms
--- MORITS.gms(799) 4 Mb
*** Status: Normal completion
--- Job MORITS.gms Stop 09/21/18 11:12:32 elapsed 0:00:02.110
